; benchmark generated from python API
(set-info :status unknown)
(declare-datatypes ((IntState 0)) (((Mk1 (val1 Int)) (Mk2 (val2 Int)))))
 (declare-fun |c_hanoi_#t~ret0| () Int)
(declare-fun |c_hanoi_#in~n| () Int)
(declare-fun c_hanoi_~n () Int)
(assert
 (let (($x109 (exists ((v_nnf_149_st IntState) (val!52 Int) )(let (($x37 (<= |c_hanoi_#in~n| 3)))
 (let (($x42 (and $x37 (<= (+ (* 2 (val2 v_nnf_149_st)) 1) |c_hanoi_#t~ret0|) (<= 1 (val2 v_nnf_149_st)))))
 (let (($x52 (not (= v_nnf_149_st (Mk1 val!52)))))
 (and $x52 $x42)))))
 ))
 (let (($x156 (exists ((v_nnf_148 Int) )(let (($x112 (<= 1 v_nnf_148)))
 (let (($x173 (<= (+ (* 2 v_nnf_148) 1) |c_hanoi_#t~ret0|)))
 (let (($x97 (<= c_hanoi_~n 3)))
 (and $x97 $x173 (<= |c_hanoi_#in~n| c_hanoi_~n) $x112)))))
 ))
 (and $x156 (not $x109)))))
(check-sat)
